Cost: 1458
0-3-4-5-2-0
0-41-6-7-43-11-10-14-19-21-44-31-30-29-36-37-38-0
0-39-35-32-28-25-26-42-22-18-16-17-20-9-8-40-0
Cost: 1458
0-3-4-5-2-0
0-41-6-7-43-11-10-14-19-21-44-31-30-29-36-37-38-0
0-39-35-32-28-25-26-42-22-18-16-17-20-9-8-40-0
Cost: 1458
0-3-4-5-2-0
0-41-6-7-43-11-10-14-19-21-44-31-30-29-36-37-38-0
0-39-35-32-28-25-26-42-22-18-16-17-20-9-8-40-0
Cost: 1458
0-3-4-5-2-0
0-41-6-7-43-11-10-14-19-21-44-31-30-29-36-37-38-0
0-39-35-32-28-25-26-42-22-18-16-17-20-9-8-40-0
Cost: 1458
0-3-4-5-2-0
0-41-6-7-43-11-10-14-19-21-44-31-30-29-36-37-38-0
0-39-35-32-28-25-26-42-22-18-16-17-20-9-8-40-0
Cost: 1458
0-3-4-5-2-0
0-41-6-7-43-11-10-14-19-21-44-31-30-29-36-37-38-0
0-39-35-32-28-25-26-42-22-18-16-17-20-9-8-40-0
Cost: 1458
0-3-4-5-2-0
0-41-6-7-43-11-10-14-19-21-44-31-30-29-36-37-38-0
0-39-35-32-28-25-26-42-22-18-16-17-20-9-8-40-0
Cost: 1458
0-3-4-5-2-0
0-41-6-7-43-11-10-14-19-21-44-31-30-29-36-37-38-0
0-39-35-32-28-25-26-42-22-18-16-17-20-9-8-40-0
Cost: 1458
0-3-4-5-2-0
0-41-6-7-43-11-10-14-19-21-44-31-30-29-36-37-38-0
0-39-35-32-28-25-26-42-22-18-16-17-20-9-8-40-0
Cost: 1458
0-3-4-5-2-0
0-41-6-7-43-11-10-14-19-21-44-31-30-29-36-37-38-0
0-39-35-32-28-25-26-42-22-18-16-17-20-9-8-40-0
Cost: 1458
0-3-4-5-2-0
0-41-6-7-43-11-10-14-19-21-44-31-30-29-36-37-38-0
0-39-35-32-28-25-26-42-22-18-16-17-20-9-8-40-0
Cost: 1458
0-3-41-6-7-43-11-10-14-19-21-44-31-30-29-36-37-0
0-35-32-28-25-26-42-22-18-16-17-20-9-8-40-39-38-0
0-4-5-2-0
Cost: 1458
0-3-41-6-7-43-11-10-14-19-21-44-31-30-29-36-37-0
0-35-32-28-25-26-42-22-18-16-17-20-9-8-40-39-38-0
0-4-5-2-0
Cost: 1458
0-3-41-6-7-43-11-10-14-19-21-44-31-30-29-36-37-0
0-35-32-28-25-26-42-22-18-16-17-20-9-8-40-39-38-0
0-4-5-2-0
Cost: 1458
0-39-35-28-25-26-42-22-18-16-17-14-20-9-8-40-0
0-3-41-6-7-10-43-11-19-21-44-31-30-29-32-36-37-38-0
0-4-5-2-0
Cost: 1458
0-3-41-6-7-43-11-10-14-19-21-44-31-30-29-36-37-0
0-35-32-28-25-26-42-22-18-16-17-20-9-8-40-39-38-0
0-4-5-2-0
Cost: 1458
0-3-41-6-7-43-11-10-14-19-21-44-31-30-29-36-37-0
0-35-32-28-25-26-42-22-18-16-17-20-9-8-40-39-38-0
0-4-5-2-0
Cost: 1458
0-3-41-6-7-43-11-10-14-19-21-44-31-30-29-36-37-0
0-35-32-28-25-26-42-22-18-16-17-20-9-8-40-39-38-0
0-4-5-2-0
Cost: 1458
0-3-41-6-7-43-11-10-14-19-21-44-31-30-29-36-37-0
0-35-32-28-25-26-42-22-18-16-17-20-9-8-40-39-38-0
0-4-5-2-0
Cost: 1458
0-3-41-6-7-43-11-10-14-19-21-44-31-30-29-36-37-0
0-35-32-28-25-26-42-22-18-16-17-20-9-8-40-39-38-0
0-4-5-2-0
Cost: 1458
0-3-4-5-2-0
0-38-35-28-25-26-42-22-18-16-17-14-20-7-9-8-40-39-0
0-41-6-43-11-10-19-21-44-31-30-29-32-36-37-0
Cost: 1458
0-3-41-6-10-43-11-19-21-44-31-30-29-32-36-37-0
0-38-35-28-25-26-42-22-18-16-17-14-20-7-9-8-40-39-0
0-4-5-2-0
Cost: 1458
0-3-41-6-10-43-11-19-21-44-31-30-29-32-36-37-0
0-38-35-28-25-26-42-22-18-16-17-14-20-7-9-8-40-39-0
0-4-5-2-0
Cost: 1458
0-39-35-28-25-26-42-22-18-16-17-14-20-9-8-40-0
0-3-41-6-7-10-43-11-19-21-44-31-30-29-32-36-37-38-0
0-4-5-2-0
Cost: 1458
0-39-35-28-25-26-42-22-18-16-17-14-20-9-8-40-0
0-3-41-6-7-10-43-11-19-21-44-31-30-29-32-36-37-38-0
0-4-5-2-0
Cost: 1458
0-3-41-6-10-43-11-19-21-44-31-30-29-36-37-38-0
0-4-5-2-0
0-39-35-32-28-25-26-42-22-18-16-17-14-20-7-9-8-40-0
Cost: 1458
0-39-35-28-25-26-42-22-18-16-17-14-20-9-8-40-0
0-3-41-6-7-10-43-11-19-21-44-31-30-29-32-36-37-38-0
0-4-5-2-0
Cost: 1458
0-3-4-5-2-0
0-38-35-28-25-26-42-22-18-16-17-14-20-7-9-8-40-39-0
0-41-6-43-11-10-19-21-44-31-30-29-32-36-37-0
Cost: 1458
0-3-41-6-10-43-11-19-21-44-31-30-29-32-36-37-0
0-38-35-28-25-26-42-22-18-16-17-14-20-7-9-8-40-39-0
0-4-5-2-0
Cost: 1458
0-3-41-6-10-43-11-19-21-44-31-30-29-32-36-37-0
0-38-35-28-25-26-42-22-18-16-17-14-20-7-9-8-40-39-0
0-4-5-2-0
Cost: 1458
0-41-6-10-43-11-19-21-44-31-30-29-32-36-37-0
0-3-4-5-2-0
0-39-35-28-25-26-42-22-18-16-17-14-20-7-9-8-40-38-0
Cost: 1458
0-4-5-2-0
0-39-35-28-25-26-42-22-18-16-17-20-7-9-8-40-38-0
0-3-41-6-10-43-11-14-19-21-44-31-30-29-32-36-37-0
Cost: 1458
0-39-35-28-25-26-42-22-18-16-17-14-20-7-9-8-40-38-0
0-3-4-5-2-0
0-41-6-10-43-11-19-21-44-31-30-29-32-36-37-0
Cost: 1458
0-3-4-5-2-0
0-38-35-28-25-26-42-22-18-16-17-14-20-9-8-40-39-0
0-41-6-7-43-11-10-19-21-44-31-30-29-32-36-37-0
Cost: 1458
0-35-32-28-25-26-42-22-18-16-17-20-7-9-8-40-39-38-0
0-3-41-6-10-43-11-14-19-21-44-31-30-29-36-37-0
0-4-5-2-0
